8 6 60
5 7 1 7 2 7 3 1 1 2 2 14 24 24 34 34 45 45 51 52 60 
6 8 1 8 2 4 1 3 1 4 2 1 2 6 15 15 24 26 40 40 49 49 55 55 60 
3 6 1 6 2 6 3 22 34 34 53 53 60 
5 5 1 5 2 2 1 8 3 3 2 6 17 17 34 34 44 44 52 53 60 
9 8 1 0 0 6 1 0 0 2 1 0 0 1 1 0 0 3 2 0 6 6 14 14 22 22 28 28 34 34 38 38 42 47 49 49 53 
11 5 1 0 0 7 1 0 0 4 1 8 3 0 0 3 1 0 0 2 2 1 2 0 6 6 10 10 14 14 20 20 26 26 30 30 34 34 40 40 44 44 52 52 54 
